(set-logic QF_NRA)
(set-info :source |Benchmarks generated from hycomp (https://es-static.fbk.eu/tools/hycomp/). BMC instances of non-linear hybrid automata taken from: Alessandro Cimatti, Sergio Mover, Stefano Tonetta, A quantifier-free SMT encoding of non-linear hybrid automata, FMCAD 2012 and Alessandro Cimatti, Sergio Mover, Stefano Tonetta, Quantier-free encoding of invariants for Hybrid Systems, Formal Methods in System Design. This instance solves a BMC problem of depth 1 and uses the quantifier free encoding with lemmas encoding. Contacts: Sergio Mover (mover@fbk.eu), Stefano Tonetta (tonettas@fbk.eu), Alessandro Cimatti (cimatti@fbk.eu).|)
(set-info :smt-lib-version 2.0)
(set-info :category "industrial")
(set-info :status unsat)
;; MathSAT API call trace
;; generated on Mon Mar 19 10:38:19 2012
(declare-fun b.event_is_timed__AT1 () Bool)
(declare-fun speed_loss__AT0 () Real)
(declare-fun b.counter.1__AT1 () Bool)
(declare-fun b.counter.2__AT1 () Bool)
(declare-fun b.counter.2__AT0 () Bool)
(declare-fun b.time__AT0 () Real)
(declare-fun b.speed_y__AT0 () Real)
(declare-fun b.EVENT.1__AT0 () Bool)
(declare-fun b.time__AT1 () Real)
(declare-fun b.y__AT1 () Real)
(declare-fun b.counter.0__AT1 () Bool)
(declare-fun b.delta__AT0 () Real)
(declare-fun b.counter.3__AT1 () Bool)
(declare-fun b.y__AT0 () Real)
(declare-fun b.event_is_timed__AT0 () Bool)
(declare-fun b.counter.0__AT0 () Bool)
(declare-fun b.counter.1__AT0 () Bool)
(declare-fun b.counter.3__AT0 () Bool)
(declare-fun b.delta__AT1 () Real)
(declare-fun b.EVENT.0__AT1 () Bool)
(declare-fun b.EVENT.1__AT1 () Bool)
(declare-fun b.EVENT.0__AT0 () Bool)
(declare-fun b.speed_y__AT1 () Real)
(assert (let ((.def_304 (<= b.speed_y__AT1 0.0 )))
(let ((.def_286 (* (- 49.0) b.delta__AT1)))
(let ((.def_287 (* 5.0 b.speed_y__AT1)))
(let ((.def_289 (+ .def_287 .def_286)))
(let ((.def_302 (<= .def_289 0.0 )))
(let ((.def_321 (and .def_302 .def_304)))
(let ((.def_290 (<= 0.0 .def_289)))
(let ((.def_291 (not .def_290)))
(let ((.def_284 (<= 0.0 b.speed_y__AT1)))
(let ((.def_318 (or .def_284 .def_291)))
(let ((.def_305 (not .def_304)))
(let ((.def_317 (or .def_302 .def_305)))
(let ((.def_319 (and .def_317 .def_318)))
(let ((.def_322 (and .def_319 .def_321)))
(let ((.def_316 (and .def_284 .def_290)))
(let ((.def_320 (and .def_316 .def_319)))
(let ((.def_323 (or .def_320 .def_322)))
(let ((.def_276 (* b.speed_y__AT1 b.delta__AT1)))
(let ((.def_277 (* 10.0 .def_276)))
(let ((.def_274 (* b.delta__AT1 b.delta__AT1)))
(let ((.def_275 (* (- 49.0) .def_274)))
(let ((.def_278 (+ .def_275 .def_277)))
(let ((.def_279 (* 10.0 b.y__AT1)))
(let ((.def_281 (+ .def_279 .def_278)))
(let ((.def_296 (<= .def_281 0.0 )))
(let ((.def_310 (not .def_296)))
(let ((.def_294 (<= b.y__AT1 0.0 )))
(let ((.def_311 (or .def_294 .def_310)))
(let ((.def_257 (<= 0.0 b.y__AT1)))
(let ((.def_308 (not .def_257)))
(let ((.def_282 (<= 0.0 .def_281)))
(let ((.def_309 (or .def_282 .def_308)))
(let ((.def_312 (and .def_309 .def_311)))
(let ((.def_303 (not .def_302)))
(let ((.def_306 (or .def_303 .def_305)))
(let ((.def_307 (not .def_306)))
(let ((.def_313 (or .def_307 .def_312)))
(let ((.def_298 (not .def_282)))
(let ((.def_299 (or .def_257 .def_298)))
(let ((.def_295 (not .def_294)))
(let ((.def_297 (or .def_295 .def_296)))
(let ((.def_300 (and .def_297 .def_299)))
(let ((.def_285 (not .def_284)))
(let ((.def_292 (or .def_285 .def_291)))
(let ((.def_293 (not .def_292)))
(let ((.def_301 (or .def_293 .def_300)))
(let ((.def_314 (and .def_301 .def_313)))
(let ((.def_283 (and .def_257 .def_282)))
(let ((.def_315 (and .def_283 .def_314)))
(let ((.def_324 (and .def_315 .def_323)))
(let ((.def_67 (<= speed_loss__AT0 (/ 1 2))))
(let ((.def_64 (<= (/ 1 10) speed_loss__AT0)))
(let ((.def_68 (and .def_64 .def_67)))
(let ((.def_325 (and .def_68 .def_324)))
(let ((.def_38 (not b.counter.0__AT0)))
(let ((.def_266 (or b.counter.1__AT0 .def_38)))
(let ((.def_267 (or b.counter.2__AT0 .def_266)))
(let ((.def_41 (not b.counter.2__AT0)))
(let ((.def_36 (not b.counter.1__AT0)))
(let ((.def_39 (and .def_36 .def_38)))
(let ((.def_265 (or .def_39 .def_41)))
(let ((.def_268 (and .def_265 .def_267)))
(let ((.def_269 (or b.counter.3__AT0 .def_268)))
(let ((.def_262 (or .def_39 b.counter.2__AT0)))
(let ((.def_261 (or .def_36 .def_41)))
(let ((.def_263 (and .def_261 .def_262)))
(let ((.def_44 (not b.counter.3__AT0)))
(let ((.def_264 (or .def_44 .def_263)))
(let ((.def_270 (and .def_264 .def_269)))
(let ((.def_258 (and .def_68 .def_257)))
(let ((.def_254 (not b.EVENT.0__AT1)))
(let ((.def_252 (not b.EVENT.1__AT1)))
(let ((.def_255 (or .def_252 .def_254)))
(let ((.def_9 (not b.counter.0__AT1)))
(let ((.def_6 (not b.counter.1__AT1)))
(let ((.def_245 (or .def_6 .def_9)))
(let ((.def_249 (or b.counter.3__AT1 .def_245)))
(let ((.def_246 (or b.counter.2__AT1 .def_245)))
(let ((.def_4 (not b.counter.2__AT1)))
(let ((.def_244 (or .def_4 .def_9)))
(let ((.def_247 (and .def_244 .def_246)))
(let ((.def_14 (not b.counter.3__AT1)))
(let ((.def_248 (or .def_14 .def_247)))
(let ((.def_250 (and .def_248 .def_249)))
(let ((.def_256 (and .def_250 .def_255)))
(let ((.def_259 (and .def_256 .def_258)))
(let ((.def_239 (<= 0.0 b.delta__AT0)))
(let ((.def_57 (not b.EVENT.0__AT0)))
(let ((.def_55 (not b.EVENT.1__AT0)))
(let ((.def_185 (and .def_55 .def_57)))
(let ((.def_189 (not .def_185)))
(let ((.def_240 (or .def_189 .def_239)))
(let ((.def_241 (or b.EVENT.1__AT0 .def_240)))
(let ((.def_177 (= b.counter.0__AT1 b.counter.0__AT0)))
(let ((.def_175 (= b.counter.1__AT1 b.counter.1__AT0)))
(let ((.def_173 (= b.counter.2__AT1 b.counter.2__AT0)))
(let ((.def_172 (= b.counter.3__AT1 b.counter.3__AT0)))
(let ((.def_174 (and .def_172 .def_173)))
(let ((.def_176 (and .def_174 .def_175)))
(let ((.def_178 (and .def_176 .def_177)))
(let ((.def_236 (or .def_178 .def_189)))
(let ((.def_237 (or b.EVENT.1__AT0 .def_236)))
(let ((.def_225 (* (- 10.0) b.y__AT1)))
(let ((.def_78 (* b.speed_y__AT0 b.delta__AT0)))
(let ((.def_79 (* 10.0 .def_78)))
(let ((.def_228 (+ .def_79 .def_225)))
(let ((.def_74 (* b.delta__AT0 b.delta__AT0)))
(let ((.def_77 (* (- 49.0) .def_74)))
(let ((.def_229 (+ .def_77 .def_228)))
(let ((.def_81 (* 10.0 b.y__AT0)))
(let ((.def_230 (+ .def_81 .def_229)))
(let ((.def_231 (= .def_230 0.0 )))
(let ((.def_220 (* (- 5.0) b.speed_y__AT1)))
(let ((.def_88 (* (- 49.0) b.delta__AT0)))
(let ((.def_221 (+ .def_88 .def_220)))
(let ((.def_90 (* 5.0 b.speed_y__AT0)))
(let ((.def_222 (+ .def_90 .def_221)))
(let ((.def_223 (= .def_222 0.0 )))
(let ((.def_232 (and .def_223 .def_231)))
(let ((.def_233 (or .def_189 .def_232)))
(let ((.def_183 (= b.y__AT0 b.y__AT1)))
(let ((.def_171 (= b.speed_y__AT0 b.speed_y__AT1)))
(let ((.def_216 (and .def_171 .def_183)))
(let ((.def_213 (= b.delta__AT0 0.0 )))
(let ((.def_214 (and .def_185 .def_213)))
(let ((.def_215 (not .def_214)))
(let ((.def_217 (or .def_215 .def_216)))
(let ((.def_218 (or b.EVENT.1__AT0 .def_217)))
(let ((.def_234 (and .def_218 .def_233)))
(let ((.def_195 (= b.time__AT0 b.time__AT1)))
(let ((.def_207 (and .def_183 .def_195)))
(let ((.def_208 (and .def_171 .def_207)))
(let ((.def_209 (and .def_178 .def_208)))
(let ((.def_210 (or .def_55 .def_209)))
(let ((.def_198 (* (- 1.0) b.time__AT1)))
(let ((.def_201 (+ b.delta__AT0 .def_198)))
(let ((.def_202 (+ b.time__AT0 .def_201)))
(let ((.def_203 (= .def_202 0.0 )))
(let ((.def_204 (or .def_189 .def_203)))
(let ((.def_205 (or b.EVENT.1__AT0 .def_204)))
(let ((.def_196 (or .def_185 .def_195)))
(let ((.def_197 (or b.EVENT.1__AT0 .def_196)))
(let ((.def_206 (and .def_197 .def_205)))
(let ((.def_211 (and .def_206 .def_210)))
(let ((.def_191 (= .def_189 b.event_is_timed__AT1)))
(let ((.def_188 (= b.event_is_timed__AT0 .def_185)))
(let ((.def_192 (and .def_188 .def_191)))
(let ((.def_179 (and .def_171 .def_178)))
(let ((.def_130 (= b.y__AT0 0.0 )))
(let ((.def_86 (<= 0.0 b.speed_y__AT0)))
(let ((.def_87 (not .def_86)))
(let ((.def_131 (and .def_87 .def_130)))
(let ((.def_180 (or .def_131 .def_179)))
(let ((.def_148 (or .def_9 b.counter.0__AT0)))
(let ((.def_147 (or b.counter.0__AT1 .def_38)))
(let ((.def_149 (and .def_147 .def_148)))
(let ((.def_150 (and .def_6 .def_149)))
(let ((.def_151 (or b.counter.1__AT0 .def_150)))
(let ((.def_146 (or b.counter.1__AT1 .def_36)))
(let ((.def_152 (and .def_146 .def_151)))
(let ((.def_163 (and .def_4 .def_152)))
(let ((.def_164 (or b.counter.2__AT0 .def_163)))
(let ((.def_158 (and .def_6 .def_38)))
(let ((.def_159 (or b.counter.1__AT0 .def_158)))
(let ((.def_160 (and .def_146 .def_159)))
(let ((.def_161 (and b.counter.2__AT1 .def_160)))
(let ((.def_162 (or .def_41 .def_161)))
(let ((.def_165 (and .def_162 .def_164)))
(let ((.def_166 (and b.counter.3__AT1 .def_165)))
(let ((.def_167 (or b.counter.3__AT0 .def_166)))
(let ((.def_153 (and b.counter.2__AT1 .def_152)))
(let ((.def_154 (or b.counter.2__AT0 .def_153)))
(let ((.def_142 (or b.counter.1__AT1 b.counter.1__AT0)))
(let ((.def_140 (and .def_6 b.counter.0__AT1)))
(let ((.def_141 (or .def_36 .def_140)))
(let ((.def_143 (and .def_141 .def_142)))
(let ((.def_144 (and .def_4 .def_143)))
(let ((.def_145 (or .def_41 .def_144)))
(let ((.def_155 (and .def_145 .def_154)))
(let ((.def_156 (and .def_14 .def_155)))
(let ((.def_157 (or .def_44 .def_156)))
(let ((.def_168 (and .def_157 .def_167)))
(let ((.def_136 (* (- 1.0) b.speed_y__AT0)))
(let ((.def_134 (* (- 1.0) speed_loss__AT0)))
(let ((.def_135 (+ 1.0 .def_134)))
(let ((.def_137 (* .def_135 .def_136)))
(let ((.def_139 (= .def_137 b.speed_y__AT1)))
(let ((.def_169 (and .def_139 .def_168)))
(let ((.def_132 (not .def_131)))
(let ((.def_170 (or .def_132 .def_169)))
(let ((.def_181 (and .def_170 .def_180)))
(let ((.def_184 (and .def_181 .def_183)))
(let ((.def_186 (or .def_184 .def_185)))
(let ((.def_187 (or b.EVENT.1__AT0 .def_186)))
(let ((.def_193 (and .def_187 .def_192)))
(let ((.def_212 (and .def_193 .def_211)))
(let ((.def_235 (and .def_212 .def_234)))
(let ((.def_238 (and .def_235 .def_237)))
(let ((.def_242 (and .def_238 .def_241)))
(let ((.def_243 (and .def_55 .def_242)))
(let ((.def_260 (and .def_243 .def_259)))
(let ((.def_271 (and .def_260 .def_270)))
(let ((.def_107 (<= b.speed_y__AT0 0.0 )))
(let ((.def_92 (+ .def_90 .def_88)))
(let ((.def_105 (<= .def_92 0.0 )))
(let ((.def_124 (and .def_105 .def_107)))
(let ((.def_93 (<= 0.0 .def_92)))
(let ((.def_94 (not .def_93)))
(let ((.def_121 (or .def_86 .def_94)))
(let ((.def_108 (not .def_107)))
(let ((.def_120 (or .def_105 .def_108)))
(let ((.def_122 (and .def_120 .def_121)))
(let ((.def_125 (and .def_122 .def_124)))
(let ((.def_119 (and .def_86 .def_93)))
(let ((.def_123 (and .def_119 .def_122)))
(let ((.def_126 (or .def_123 .def_125)))
(let ((.def_80 (+ .def_77 .def_79)))
(let ((.def_83 (+ .def_81 .def_80)))
(let ((.def_99 (<= .def_83 0.0 )))
(let ((.def_113 (not .def_99)))
(let ((.def_97 (<= b.y__AT0 0.0 )))
(let ((.def_114 (or .def_97 .def_113)))
(let ((.def_60 (<= 0.0 b.y__AT0)))
(let ((.def_111 (not .def_60)))
(let ((.def_84 (<= 0.0 .def_83)))
(let ((.def_112 (or .def_84 .def_111)))
(let ((.def_115 (and .def_112 .def_114)))
(let ((.def_106 (not .def_105)))
(let ((.def_109 (or .def_106 .def_108)))
(let ((.def_110 (not .def_109)))
(let ((.def_116 (or .def_110 .def_115)))
(let ((.def_101 (not .def_84)))
(let ((.def_102 (or .def_60 .def_101)))
(let ((.def_98 (not .def_97)))
(let ((.def_100 (or .def_98 .def_99)))
(let ((.def_103 (and .def_100 .def_102)))
(let ((.def_95 (or .def_87 .def_94)))
(let ((.def_96 (not .def_95)))
(let ((.def_104 (or .def_96 .def_103)))
(let ((.def_117 (and .def_104 .def_116)))
(let ((.def_85 (and .def_60 .def_84)))
(let ((.def_118 (and .def_85 .def_117)))
(let ((.def_127 (and .def_118 .def_126)))
(let ((.def_128 (and .def_68 .def_127)))
(let ((.def_69 (and .def_60 .def_68)))
(let ((.def_58 (or .def_55 .def_57)))
(let ((.def_48 (or .def_36 .def_38)))
(let ((.def_52 (or b.counter.3__AT0 .def_48)))
(let ((.def_49 (or b.counter.2__AT0 .def_48)))
(let ((.def_47 (or .def_38 .def_41)))
(let ((.def_50 (and .def_47 .def_49)))
(let ((.def_51 (or .def_44 .def_50)))
(let ((.def_53 (and .def_51 .def_52)))
(let ((.def_59 (and .def_53 .def_58)))
(let ((.def_70 (and .def_59 .def_69)))
(let ((.def_42 (and .def_39 .def_41)))
(let ((.def_45 (and .def_42 .def_44)))
(let ((.def_33 (= b.speed_y__AT0 0.0 )))
(let ((.def_30 (= b.y__AT0 10.0 )))
(let ((.def_25 (= b.time__AT0 0.0 )))
(let ((.def_27 (and .def_25 b.event_is_timed__AT0)))
(let ((.def_31 (and .def_27 .def_30)))
(let ((.def_34 (and .def_31 .def_33)))
(let ((.def_46 (and .def_34 .def_45)))
(let ((.def_71 (and .def_46 .def_70)))
(let ((.def_17 (or b.counter.1__AT1 .def_9)))
(let ((.def_18 (or b.counter.2__AT1 .def_17)))
(let ((.def_10 (and .def_6 .def_9)))
(let ((.def_16 (or .def_4 .def_10)))
(let ((.def_19 (and .def_16 .def_18)))
(let ((.def_20 (or b.counter.3__AT1 .def_19)))
(let ((.def_11 (or b.counter.2__AT1 .def_10)))
(let ((.def_7 (or .def_4 .def_6)))
(let ((.def_12 (and .def_7 .def_11)))
(let ((.def_15 (or .def_12 .def_14)))
(let ((.def_21 (and .def_15 .def_20)))
(let ((.def_22 (not .def_21)))
(let ((.def_72 (and .def_22 .def_71)))
(let ((.def_129 (and .def_72 .def_128)))
(let ((.def_272 (and .def_129 .def_271)))
(let ((.def_326 (and .def_272 .def_325)))
.def_326))))))))))))))))))))))))))))))))))))))))))))))))))))))))))))))))))))))))))))))))))))))))))))))))))))))))))))))))))))))))))))))))))))))))))))))))))))))))))))))))))))))))))))))))))))))))))))))))))))))))))))))))))))))))))))))))))))))))))))))))))))))))))))))))))))))))))))))))))))))))))
(check-sat)
(exit)
